restart         =  plot
bands_plot      =  true                                                                  
                                                                                         
begin kpoint_path
   GAMMA  0.00000000  0.00000000  0.00000000        X  0.50000000  0.00000000  0.00000000
       X  0.50000000  0.00000000  0.00000000        U  0.50000000  0.00000000  0.50000000
       U  0.50000000  0.00000000  0.50000000        Z  0.00000000  0.00000000  0.50000000
       Z  0.00000000  0.00000000  0.50000000        X  0.50000000  0.00000000  0.00000000
end kpoint_path

bands_num_points 40
dis_num_iter    =  100000
num_iter  = 100000
# conv_window     = 5
# dis_conv_window = 5
num_print_cycles  = 1000
write_xyz = true
write_hr = true
dis_froz_max    = 8.591
dis_win_max     = 9.203
dis_froz_min = 5.923
dis_win_min = 5.114
exclude_bands   = 1-50,67-96
# guiding_centres = true
# Begin Projections
# Si:sp3
# End Projections

# This part was generated automatically by VASP
num_bands = 16
num_wann = 12
begin unit_cell_cart
     6.5773000     0.0000000     0.0000000
     0.0000000     3.8540000     0.0000000
     0.0000000     0.0000000     7.3096000
end unit_cell_cart
begin atoms_cart
Mn       3.5745994     0.9635000     2.3943124
Mn       6.2913506     2.8905000     6.0491124
Mn       3.0027006     2.8905000     4.9152876
Mn       0.2859494     0.9635000     1.2604876
Cu       2.4918067     2.8905000     0.3990739
Cu       4.0854933     0.9635000     6.9105261
Cu       5.7804567     2.8905000     3.2557261
Cu       0.7968433     0.9635000     4.0538739
As       4.9995640     2.8905000     0.9364268
As       1.5777360     0.9635000     6.3731732
As       1.7109140     2.8905000     2.7183732
As       4.8663860     0.9635000     4.5912268
end atoms_cart
mp_grid =     9    15     9
begin kpoints
      0.000000000000      0.000000000000      0.000000000000
      0.111111111111      0.000000000000      0.000000000000
      0.222222222222      0.000000000000      0.000000000000
      0.333333333333      0.000000000000      0.000000000000
      0.444444444444      0.000000000000      0.000000000000
      0.000000000000      0.066666666667      0.000000000000
      0.111111111111      0.066666666667      0.000000000000
      0.222222222222      0.066666666667      0.000000000000
      0.333333333333      0.066666666667      0.000000000000
      0.444444444444      0.066666666667      0.000000000000
      0.000000000000      0.133333333333      0.000000000000
      0.111111111111      0.133333333333      0.000000000000
      0.222222222222      0.133333333333      0.000000000000
      0.333333333333      0.133333333333      0.000000000000
      0.444444444444      0.133333333333      0.000000000000
      0.000000000000      0.200000000000      0.000000000000
      0.111111111111      0.200000000000      0.000000000000
      0.222222222222      0.200000000000      0.000000000000
      0.333333333333      0.200000000000      0.000000000000
      0.444444444444      0.200000000000      0.000000000000
      0.000000000000      0.266666666667      0.000000000000
      0.111111111111      0.266666666667      0.000000000000
      0.222222222222      0.266666666667      0.000000000000
      0.333333333333      0.266666666667      0.000000000000
      0.444444444444      0.266666666667      0.000000000000
      0.000000000000      0.333333333333      0.000000000000
      0.111111111111      0.333333333333      0.000000000000
      0.222222222222      0.333333333333      0.000000000000
      0.333333333333      0.333333333333      0.000000000000
      0.444444444444      0.333333333333      0.000000000000
      0.000000000000      0.400000000000      0.000000000000
      0.111111111111      0.400000000000      0.000000000000
      0.222222222222      0.400000000000      0.000000000000
      0.333333333333      0.400000000000      0.000000000000
      0.444444444444      0.400000000000      0.000000000000
      0.000000000000      0.466666666667      0.000000000000
      0.111111111111      0.466666666667      0.000000000000
      0.222222222222      0.466666666667      0.000000000000
      0.333333333333      0.466666666667      0.000000000000
      0.444444444444      0.466666666667      0.000000000000
      0.000000000000      0.000000000000      0.111111111111
      0.111111111111      0.000000000000      0.111111111111
      0.222222222222      0.000000000000      0.111111111111
      0.333333333333      0.000000000000      0.111111111111
      0.444444444444      0.000000000000      0.111111111111
      0.000000000000      0.066666666667      0.111111111111
      0.111111111111      0.066666666667      0.111111111111
      0.222222222222      0.066666666667      0.111111111111
      0.333333333333      0.066666666667      0.111111111111
      0.444444444444      0.066666666667      0.111111111111
      0.000000000000      0.133333333333      0.111111111111
      0.111111111111      0.133333333333      0.111111111111
      0.222222222222      0.133333333333      0.111111111111
      0.333333333333      0.133333333333      0.111111111111
      0.444444444444      0.133333333333      0.111111111111
      0.000000000000      0.200000000000      0.111111111111
      0.111111111111      0.200000000000      0.111111111111
      0.222222222222      0.200000000000      0.111111111111
      0.333333333333      0.200000000000      0.111111111111
      0.444444444444      0.200000000000      0.111111111111
      0.000000000000      0.266666666667      0.111111111111
      0.111111111111      0.266666666667      0.111111111111
      0.222222222222      0.266666666667      0.111111111111
      0.333333333333      0.266666666667      0.111111111111
      0.444444444444      0.266666666667      0.111111111111
      0.000000000000      0.333333333333      0.111111111111
      0.111111111111      0.333333333333      0.111111111111
      0.222222222222      0.333333333333      0.111111111111
      0.333333333333      0.333333333333      0.111111111111
      0.444444444444      0.333333333333      0.111111111111
      0.000000000000      0.400000000000      0.111111111111
      0.111111111111      0.400000000000      0.111111111111
      0.222222222222      0.400000000000      0.111111111111
      0.333333333333      0.400000000000      0.111111111111
      0.444444444444      0.400000000000      0.111111111111
      0.000000000000      0.466666666667      0.111111111111
      0.111111111111      0.466666666667      0.111111111111
      0.222222222222      0.466666666667      0.111111111111
      0.333333333333      0.466666666667      0.111111111111
      0.444444444444      0.466666666667      0.111111111111
      0.000000000000      0.000000000000      0.222222222222
      0.111111111111      0.000000000000      0.222222222222
      0.222222222222      0.000000000000      0.222222222222
      0.333333333333      0.000000000000      0.222222222222
      0.444444444444      0.000000000000      0.222222222222
      0.000000000000      0.066666666667      0.222222222222
      0.111111111111      0.066666666667      0.222222222222
      0.222222222222      0.066666666667      0.222222222222
      0.333333333333      0.066666666667      0.222222222222
      0.444444444444      0.066666666667      0.222222222222
      0.000000000000      0.133333333333      0.222222222222
      0.111111111111      0.133333333333      0.222222222222
      0.222222222222      0.133333333333      0.222222222222
      0.333333333333      0.133333333333      0.222222222222
      0.444444444444      0.133333333333      0.222222222222
      0.000000000000      0.200000000000      0.222222222222
      0.111111111111      0.200000000000      0.222222222222
      0.222222222222      0.200000000000      0.222222222222
      0.333333333333      0.200000000000      0.222222222222
      0.444444444444      0.200000000000      0.222222222222
      0.000000000000      0.266666666667      0.222222222222
      0.111111111111      0.266666666667      0.222222222222
      0.222222222222      0.266666666667      0.222222222222
      0.333333333333      0.266666666667      0.222222222222
      0.444444444444      0.266666666667      0.222222222222
      0.000000000000      0.333333333333      0.222222222222
      0.111111111111      0.333333333333      0.222222222222
      0.222222222222      0.333333333333      0.222222222222
      0.333333333333      0.333333333333      0.222222222222
      0.444444444444      0.333333333333      0.222222222222
      0.000000000000      0.400000000000      0.222222222222
      0.111111111111      0.400000000000      0.222222222222
      0.222222222222      0.400000000000      0.222222222222
      0.333333333333      0.400000000000      0.222222222222
      0.444444444444      0.400000000000      0.222222222222
      0.000000000000      0.466666666667      0.222222222222
      0.111111111111      0.466666666667      0.222222222222
      0.222222222222      0.466666666667      0.222222222222
      0.333333333333      0.466666666667      0.222222222222
      0.444444444444      0.466666666667      0.222222222222
      0.000000000000      0.000000000000      0.333333333333
      0.111111111111      0.000000000000      0.333333333333
      0.222222222222      0.000000000000      0.333333333333
      0.333333333333      0.000000000000      0.333333333333
      0.444444444444      0.000000000000      0.333333333333
      0.000000000000      0.066666666667      0.333333333333
      0.111111111111      0.066666666667      0.333333333333
      0.222222222222      0.066666666667      0.333333333333
      0.333333333333      0.066666666667      0.333333333333
      0.444444444444      0.066666666667      0.333333333333
      0.000000000000      0.133333333333      0.333333333333
      0.111111111111      0.133333333333      0.333333333333
      0.222222222222      0.133333333333      0.333333333333
      0.333333333333      0.133333333333      0.333333333333
      0.444444444444      0.133333333333      0.333333333333
      0.000000000000      0.200000000000      0.333333333333
      0.111111111111      0.200000000000      0.333333333333
      0.222222222222      0.200000000000      0.333333333333
      0.333333333333      0.200000000000      0.333333333333
      0.444444444444      0.200000000000      0.333333333333
      0.000000000000      0.266666666667      0.333333333333
      0.111111111111      0.266666666667      0.333333333333
      0.222222222222      0.266666666667      0.333333333333
      0.333333333333      0.266666666667      0.333333333333
      0.444444444444      0.266666666667      0.333333333333
      0.000000000000      0.333333333333      0.333333333333
      0.111111111111      0.333333333333      0.333333333333
      0.222222222222      0.333333333333      0.333333333333
      0.333333333333      0.333333333333      0.333333333333
      0.444444444444      0.333333333333      0.333333333333
      0.000000000000      0.400000000000      0.333333333333
      0.111111111111      0.400000000000      0.333333333333
      0.222222222222      0.400000000000      0.333333333333
      0.333333333333      0.400000000000      0.333333333333
      0.444444444444      0.400000000000      0.333333333333
      0.000000000000      0.466666666667      0.333333333333
      0.111111111111      0.466666666667      0.333333333333
      0.222222222222      0.466666666667      0.333333333333
      0.333333333333      0.466666666667      0.333333333333
      0.444444444444      0.466666666667      0.333333333333
      0.000000000000      0.000000000000      0.444444444444
      0.111111111111      0.000000000000      0.444444444444
      0.222222222222      0.000000000000      0.444444444444
      0.333333333333      0.000000000000      0.444444444444
      0.444444444444      0.000000000000      0.444444444444
      0.000000000000      0.066666666667      0.444444444444
      0.111111111111      0.066666666667      0.444444444444
      0.222222222222      0.066666666667      0.444444444444
      0.333333333333      0.066666666667      0.444444444444
      0.444444444444      0.066666666667      0.444444444444
      0.000000000000      0.133333333333      0.444444444444
      0.111111111111      0.133333333333      0.444444444444
      0.222222222222      0.133333333333      0.444444444444
      0.333333333333      0.133333333333      0.444444444444
      0.444444444444      0.133333333333      0.444444444444
      0.000000000000      0.200000000000      0.444444444444
      0.111111111111      0.200000000000      0.444444444444
      0.222222222222      0.200000000000      0.444444444444
      0.333333333333      0.200000000000      0.444444444444
      0.444444444444      0.200000000000      0.444444444444
      0.000000000000      0.266666666667      0.444444444444
      0.111111111111      0.266666666667      0.444444444444
      0.222222222222      0.266666666667      0.444444444444
      0.333333333333      0.266666666667      0.444444444444
      0.444444444444      0.266666666667      0.444444444444
      0.000000000000      0.333333333333      0.444444444444
      0.111111111111      0.333333333333      0.444444444444
      0.222222222222      0.333333333333      0.444444444444
      0.333333333333      0.333333333333      0.444444444444
      0.444444444444      0.333333333333      0.444444444444
      0.000000000000      0.400000000000      0.444444444444
      0.111111111111      0.400000000000      0.444444444444
      0.222222222222      0.400000000000      0.444444444444
      0.333333333333      0.400000000000      0.444444444444
      0.444444444444      0.400000000000      0.444444444444
      0.000000000000      0.466666666667      0.444444444444
      0.111111111111      0.466666666667      0.444444444444
      0.222222222222      0.466666666667      0.444444444444
      0.333333333333      0.466666666667      0.444444444444
      0.444444444444      0.466666666667      0.444444444444
     -0.111111111111      0.000000000000      0.000000000000
     -0.222222222222      0.000000000000      0.000000000000
     -0.333333333333      0.000000000000      0.000000000000
     -0.444444444444      0.000000000000      0.000000000000
      0.000000000000     -0.066666666667      0.000000000000
     -0.111111111111     -0.066666666667      0.000000000000
      0.111111111111     -0.066666666667      0.000000000000
     -0.111111111111      0.066666666667      0.000000000000
     -0.222222222222     -0.066666666667      0.000000000000
      0.222222222222     -0.066666666667      0.000000000000
     -0.222222222222      0.066666666667      0.000000000000
     -0.333333333333     -0.066666666667      0.000000000000
      0.333333333333     -0.066666666667      0.000000000000
     -0.333333333333      0.066666666667      0.000000000000
     -0.444444444444     -0.066666666667      0.000000000000
      0.444444444444     -0.066666666667      0.000000000000
     -0.444444444444      0.066666666667      0.000000000000
      0.000000000000     -0.133333333333      0.000000000000
     -0.111111111111     -0.133333333333      0.000000000000
      0.111111111111     -0.133333333333      0.000000000000
     -0.111111111111      0.133333333333      0.000000000000
     -0.222222222222     -0.133333333333      0.000000000000
      0.222222222222     -0.133333333333      0.000000000000
     -0.222222222222      0.133333333333      0.000000000000
     -0.333333333333     -0.133333333333      0.000000000000
      0.333333333333     -0.133333333333      0.000000000000
     -0.333333333333      0.133333333333      0.000000000000
     -0.444444444444     -0.133333333333      0.000000000000
      0.444444444444     -0.133333333333      0.000000000000
     -0.444444444444      0.133333333333      0.000000000000
      0.000000000000     -0.200000000000      0.000000000000
     -0.111111111111     -0.200000000000      0.000000000000
      0.111111111111     -0.200000000000      0.000000000000
     -0.111111111111      0.200000000000      0.000000000000
     -0.222222222222     -0.200000000000      0.000000000000
      0.222222222222     -0.200000000000      0.000000000000
     -0.222222222222      0.200000000000      0.000000000000
     -0.333333333333     -0.200000000000      0.000000000000
      0.333333333333     -0.200000000000      0.000000000000
     -0.333333333333      0.200000000000      0.000000000000
     -0.444444444444     -0.200000000000      0.000000000000
      0.444444444444     -0.200000000000      0.000000000000
     -0.444444444444      0.200000000000      0.000000000000
      0.000000000000     -0.266666666667      0.000000000000
     -0.111111111111     -0.266666666667      0.000000000000
      0.111111111111     -0.266666666667      0.000000000000
     -0.111111111111      0.266666666667      0.000000000000
     -0.222222222222     -0.266666666667      0.000000000000
      0.222222222222     -0.266666666667      0.000000000000
     -0.222222222222      0.266666666667      0.000000000000
     -0.333333333333     -0.266666666667      0.000000000000
      0.333333333333     -0.266666666667      0.000000000000
     -0.333333333333      0.266666666667      0.000000000000
     -0.444444444444     -0.266666666667      0.000000000000
      0.444444444444     -0.266666666667      0.000000000000
     -0.444444444444      0.266666666667      0.000000000000
      0.000000000000     -0.333333333333      0.000000000000
     -0.111111111111     -0.333333333333      0.000000000000
      0.111111111111     -0.333333333333      0.000000000000
     -0.111111111111      0.333333333333      0.000000000000
     -0.222222222222     -0.333333333333      0.000000000000
      0.222222222222     -0.333333333333      0.000000000000
     -0.222222222222      0.333333333333      0.000000000000
     -0.333333333333     -0.333333333333      0.000000000000
      0.333333333333     -0.333333333333      0.000000000000
     -0.333333333333      0.333333333333      0.000000000000
     -0.444444444444     -0.333333333333      0.000000000000
      0.444444444444     -0.333333333333      0.000000000000
     -0.444444444444      0.333333333333      0.000000000000
      0.000000000000     -0.400000000000      0.000000000000
     -0.111111111111     -0.400000000000      0.000000000000
      0.111111111111     -0.400000000000      0.000000000000
     -0.111111111111      0.400000000000      0.000000000000
     -0.222222222222     -0.400000000000      0.000000000000
      0.222222222222     -0.400000000000      0.000000000000
     -0.222222222222      0.400000000000      0.000000000000
     -0.333333333333     -0.400000000000      0.000000000000
      0.333333333333     -0.400000000000      0.000000000000
     -0.333333333333      0.400000000000      0.000000000000
     -0.444444444444     -0.400000000000      0.000000000000
      0.444444444444     -0.400000000000      0.000000000000
     -0.444444444444      0.400000000000      0.000000000000
      0.000000000000     -0.466666666667      0.000000000000
     -0.111111111111     -0.466666666667      0.000000000000
      0.111111111111     -0.466666666667      0.000000000000
     -0.111111111111      0.466666666667      0.000000000000
     -0.222222222222     -0.466666666667      0.000000000000
      0.222222222222     -0.466666666667      0.000000000000
     -0.222222222222      0.466666666667      0.000000000000
     -0.333333333333     -0.466666666667      0.000000000000
      0.333333333333     -0.466666666667      0.000000000000
     -0.333333333333      0.466666666667      0.000000000000
     -0.444444444444     -0.466666666667      0.000000000000
      0.444444444444     -0.466666666667      0.000000000000
     -0.444444444444      0.466666666667      0.000000000000
      0.000000000000      0.000000000000     -0.111111111111
     -0.111111111111      0.000000000000     -0.111111111111
     -0.111111111111      0.000000000000      0.111111111111
      0.111111111111      0.000000000000     -0.111111111111
     -0.222222222222      0.000000000000     -0.111111111111
     -0.222222222222      0.000000000000      0.111111111111
      0.222222222222      0.000000000000     -0.111111111111
     -0.333333333333      0.000000000000     -0.111111111111
     -0.333333333333      0.000000000000      0.111111111111
      0.333333333333      0.000000000000     -0.111111111111
     -0.444444444444      0.000000000000     -0.111111111111
     -0.444444444444      0.000000000000      0.111111111111
      0.444444444444      0.000000000000     -0.111111111111
      0.000000000000     -0.066666666667     -0.111111111111
      0.000000000000     -0.066666666667      0.111111111111
      0.000000000000      0.066666666667     -0.111111111111
     -0.111111111111     -0.066666666667     -0.111111111111
     -0.111111111111     -0.066666666667      0.111111111111
      0.111111111111      0.066666666667     -0.111111111111
      0.111111111111     -0.066666666667     -0.111111111111
     -0.111111111111      0.066666666667      0.111111111111
     -0.111111111111      0.066666666667     -0.111111111111
      0.111111111111     -0.066666666667      0.111111111111
     -0.222222222222     -0.066666666667     -0.111111111111
     -0.222222222222     -0.066666666667      0.111111111111
      0.222222222222      0.066666666667     -0.111111111111
      0.222222222222     -0.066666666667     -0.111111111111
     -0.222222222222      0.066666666667      0.111111111111
     -0.222222222222      0.066666666667     -0.111111111111
      0.222222222222     -0.066666666667      0.111111111111
     -0.333333333333     -0.066666666667     -0.111111111111
     -0.333333333333     -0.066666666667      0.111111111111
      0.333333333333      0.066666666667     -0.111111111111
      0.333333333333     -0.066666666667     -0.111111111111
     -0.333333333333      0.066666666667      0.111111111111
     -0.333333333333      0.066666666667     -0.111111111111
      0.333333333333     -0.066666666667      0.111111111111
     -0.444444444444     -0.066666666667     -0.111111111111
     -0.444444444444     -0.066666666667      0.111111111111
      0.444444444444      0.066666666667     -0.111111111111
      0.444444444444     -0.066666666667     -0.111111111111
     -0.444444444444      0.066666666667      0.111111111111
     -0.444444444444      0.066666666667     -0.111111111111
      0.444444444444     -0.066666666667      0.111111111111
      0.000000000000     -0.133333333333     -0.111111111111
      0.000000000000     -0.133333333333      0.111111111111
      0.000000000000      0.133333333333     -0.111111111111
     -0.111111111111     -0.133333333333     -0.111111111111
     -0.111111111111     -0.133333333333      0.111111111111
      0.111111111111      0.133333333333     -0.111111111111
      0.111111111111     -0.133333333333     -0.111111111111
     -0.111111111111      0.133333333333      0.111111111111
     -0.111111111111      0.133333333333     -0.111111111111
      0.111111111111     -0.133333333333      0.111111111111
     -0.222222222222     -0.133333333333     -0.111111111111
     -0.222222222222     -0.133333333333      0.111111111111
      0.222222222222      0.133333333333     -0.111111111111
      0.222222222222     -0.133333333333     -0.111111111111
     -0.222222222222      0.133333333333      0.111111111111
     -0.222222222222      0.133333333333     -0.111111111111
      0.222222222222     -0.133333333333      0.111111111111
     -0.333333333333     -0.133333333333     -0.111111111111
     -0.333333333333     -0.133333333333      0.111111111111
      0.333333333333      0.133333333333     -0.111111111111
      0.333333333333     -0.133333333333     -0.111111111111
     -0.333333333333      0.133333333333      0.111111111111
     -0.333333333333      0.133333333333     -0.111111111111
      0.333333333333     -0.133333333333      0.111111111111
     -0.444444444444     -0.133333333333     -0.111111111111
     -0.444444444444     -0.133333333333      0.111111111111
      0.444444444444      0.133333333333     -0.111111111111
      0.444444444444     -0.133333333333     -0.111111111111
     -0.444444444444      0.133333333333      0.111111111111
     -0.444444444444      0.133333333333     -0.111111111111
      0.444444444444     -0.133333333333      0.111111111111
      0.000000000000     -0.200000000000     -0.111111111111
      0.000000000000     -0.200000000000      0.111111111111
      0.000000000000      0.200000000000     -0.111111111111
     -0.111111111111     -0.200000000000     -0.111111111111
     -0.111111111111     -0.200000000000      0.111111111111
      0.111111111111      0.200000000000     -0.111111111111
      0.111111111111     -0.200000000000     -0.111111111111
     -0.111111111111      0.200000000000      0.111111111111
     -0.111111111111      0.200000000000     -0.111111111111
      0.111111111111     -0.200000000000      0.111111111111
     -0.222222222222     -0.200000000000     -0.111111111111
     -0.222222222222     -0.200000000000      0.111111111111
      0.222222222222      0.200000000000     -0.111111111111
      0.222222222222     -0.200000000000     -0.111111111111
     -0.222222222222      0.200000000000      0.111111111111
     -0.222222222222      0.200000000000     -0.111111111111
      0.222222222222     -0.200000000000      0.111111111111
     -0.333333333333     -0.200000000000     -0.111111111111
     -0.333333333333     -0.200000000000      0.111111111111
      0.333333333333      0.200000000000     -0.111111111111
      0.333333333333     -0.200000000000     -0.111111111111
     -0.333333333333      0.200000000000      0.111111111111
     -0.333333333333      0.200000000000     -0.111111111111
      0.333333333333     -0.200000000000      0.111111111111
     -0.444444444444     -0.200000000000     -0.111111111111
     -0.444444444444     -0.200000000000      0.111111111111
      0.444444444444      0.200000000000     -0.111111111111
      0.444444444444     -0.200000000000     -0.111111111111
     -0.444444444444      0.200000000000      0.111111111111
     -0.444444444444      0.200000000000     -0.111111111111
      0.444444444444     -0.200000000000      0.111111111111
      0.000000000000     -0.266666666667     -0.111111111111
      0.000000000000     -0.266666666667      0.111111111111
      0.000000000000      0.266666666667     -0.111111111111
     -0.111111111111     -0.266666666667     -0.111111111111
     -0.111111111111     -0.266666666667      0.111111111111
      0.111111111111      0.266666666667     -0.111111111111
      0.111111111111     -0.266666666667     -0.111111111111
     -0.111111111111      0.266666666667      0.111111111111
     -0.111111111111      0.266666666667     -0.111111111111
      0.111111111111     -0.266666666667      0.111111111111
     -0.222222222222     -0.266666666667     -0.111111111111
     -0.222222222222     -0.266666666667      0.111111111111
      0.222222222222      0.266666666667     -0.111111111111
      0.222222222222     -0.266666666667     -0.111111111111
     -0.222222222222      0.266666666667      0.111111111111
     -0.222222222222      0.266666666667     -0.111111111111
      0.222222222222     -0.266666666667      0.111111111111
     -0.333333333333     -0.266666666667     -0.111111111111
     -0.333333333333     -0.266666666667      0.111111111111
      0.333333333333      0.266666666667     -0.111111111111
      0.333333333333     -0.266666666667     -0.111111111111
     -0.333333333333      0.266666666667      0.111111111111
     -0.333333333333      0.266666666667     -0.111111111111
      0.333333333333     -0.266666666667      0.111111111111
     -0.444444444444     -0.266666666667     -0.111111111111
     -0.444444444444     -0.266666666667      0.111111111111
      0.444444444444      0.266666666667     -0.111111111111
      0.444444444444     -0.266666666667     -0.111111111111
     -0.444444444444      0.266666666667      0.111111111111
     -0.444444444444      0.266666666667     -0.111111111111
      0.444444444444     -0.266666666667      0.111111111111
      0.000000000000     -0.333333333333     -0.111111111111
      0.000000000000     -0.333333333333      0.111111111111
      0.000000000000      0.333333333333     -0.111111111111
     -0.111111111111     -0.333333333333     -0.111111111111
     -0.111111111111     -0.333333333333      0.111111111111
      0.111111111111      0.333333333333     -0.111111111111
      0.111111111111     -0.333333333333     -0.111111111111
     -0.111111111111      0.333333333333      0.111111111111
     -0.111111111111      0.333333333333     -0.111111111111
      0.111111111111     -0.333333333333      0.111111111111
     -0.222222222222     -0.333333333333     -0.111111111111
     -0.222222222222     -0.333333333333      0.111111111111
      0.222222222222      0.333333333333     -0.111111111111
      0.222222222222     -0.333333333333     -0.111111111111
     -0.222222222222      0.333333333333      0.111111111111
     -0.222222222222      0.333333333333     -0.111111111111
      0.222222222222     -0.333333333333      0.111111111111
     -0.333333333333     -0.333333333333     -0.111111111111
     -0.333333333333     -0.333333333333      0.111111111111
      0.333333333333      0.333333333333     -0.111111111111
      0.333333333333     -0.333333333333     -0.111111111111
     -0.333333333333      0.333333333333      0.111111111111
     -0.333333333333      0.333333333333     -0.111111111111
      0.333333333333     -0.333333333333      0.111111111111
     -0.444444444444     -0.333333333333     -0.111111111111
     -0.444444444444     -0.333333333333      0.111111111111
      0.444444444444      0.333333333333     -0.111111111111
      0.444444444444     -0.333333333333     -0.111111111111
     -0.444444444444      0.333333333333      0.111111111111